c generated by sgen
p cnf 93 196
-2 -3 -4 0
-1 -3 -4 0
-1 -2 -4 0
-1 -2 -3 0
-6 -7 -8 0
-5 -7 -8 0
-5 -6 -8 0
-5 -6 -7 0
-10 -11 -12 0
-9 -11 -12 0
-9 -10 -12 0
-9 -10 -11 0
-14 -15 -16 0
-13 -15 -16 0
-13 -14 -16 0
-13 -14 -15 0
-18 -19 -20 0
-17 -19 -20 0
-17 -18 -20 0
-17 -18 -19 0
-22 -23 -24 0
-21 -23 -24 0
-21 -22 -24 0
-21 -22 -23 0
-26 -27 -28 0
-25 -27 -28 0
-25 -26 -28 0
-25 -26 -27 0
-30 -31 -32 0
-29 -31 -32 0
-29 -30 -32 0
-29 -30 -31 0
-34 -35 -36 0
-33 -35 -36 0
-33 -34 -36 0
-33 -34 -35 0
-38 -39 -40 0
-37 -39 -40 0
-37 -38 -40 0
-37 -38 -39 0
-42 -43 -44 0
-41 -43 -44 0
-41 -42 -44 0
-41 -42 -43 0
-46 -47 -48 0
-45 -47 -48 0
-45 -46 -48 0
-45 -46 -47 0
-50 -51 -52 0
-49 -51 -52 0
-49 -50 -52 0
-49 -50 -51 0
-54 -55 -56 0
-53 -55 -56 0
-53 -54 -56 0
-53 -54 -55 0
-58 -59 -60 0
-57 -59 -60 0
-57 -58 -60 0
-57 -58 -59 0
-62 -63 -64 0
-61 -63 -64 0
-61 -62 -64 0
-61 -62 -63 0
-66 -67 -68 0
-65 -67 -68 0
-65 -66 -68 0
-65 -66 -67 0
-70 -71 -72 0
-69 -71 -72 0
-69 -70 -72 0
-69 -70 -71 0
-74 -75 -76 0
-73 -75 -76 0
-73 -74 -76 0
-73 -74 -75 0
-78 -79 -80 0
-77 -79 -80 0
-77 -78 -80 0
-77 -78 -79 0
-82 -83 -84 0
-81 -83 -84 0
-81 -82 -84 0
-81 -82 -83 0
-86 -87 -88 0
-85 -87 -88 0
-85 -86 -88 0
-85 -86 -87 0
-89 -90 -91 0
-89 -90 -92 0
-89 -90 -93 0
-89 -91 -92 0
-89 -91 -93 0
-89 -92 -93 0
-90 -91 -92 0
-90 -91 -93 0
-90 -92 -93 0
-91 -92 -93 0
38 67 36 0
50 67 36 0
50 38 36 0
50 38 67 0
13 10 3 0
65 10 3 0
65 13 3 0
65 13 10 0
14 57 5 0
77 57 5 0
77 14 5 0
77 14 57 0
86 23 49 0
60 23 49 0
60 86 49 0
60 86 23 0
87 35 25 0
44 35 25 0
44 87 25 0
44 87 35 0
53 59 1 0
8 59 1 0
8 53 1 0
8 53 59 0
40 91 71 0
11 91 71 0
11 40 71 0
11 40 91 0
81 2 22 0
90 2 22 0
90 81 22 0
90 81 2 0
74 34 93 0
54 34 93 0
54 74 93 0
54 74 34 0
6 33 24 0
20 33 24 0
20 6 24 0
20 6 33 0
28 32 45 0
39 32 45 0
39 28 45 0
39 28 32 0
46 89 43 0
18 89 43 0
18 46 43 0
18 46 89 0
73 26 70 0
78 26 70 0
78 73 70 0
78 73 26 0
69 42 55 0
29 42 55 0
29 69 55 0
29 69 42 0
47 7 76 0
66 7 76 0
66 47 76 0
66 47 7 0
56 83 51 0
12 83 51 0
12 56 51 0
12 56 83 0
52 79 61 0
48 79 61 0
48 52 61 0
48 52 79 0
62 30 58 0
84 30 58 0
84 62 58 0
84 62 30 0
82 85 16 0
37 85 16 0
37 82 16 0
37 82 85 0
21 68 80 0
41 68 80 0
41 21 80 0
41 21 68 0
15 27 63 0
92 27 63 0
92 15 63 0
92 15 27 0
9 19 31 0
75 19 31 0
75 9 31 0
75 9 19 0
88 64 17 0
88 64 4 0
88 64 72 0
88 17 4 0
88 17 72 0
88 4 72 0
64 17 4 0
64 17 72 0
64 4 72 0
17 4 72 0
